(set-option :produce-models true)
(set-logic QF_UF)
(declare-fun p79() Bool)
(declare-fun p83() Bool)
(declare-fun p22() Bool)
(declare-fun p25() Bool)
(declare-fun p51() Bool)
(declare-fun p21() Bool)
(declare-fun p84() Bool)
(declare-fun p54() Bool)
(declare-fun p13() Bool)
(declare-fun p15() Bool)
(declare-fun p33() Bool)
(declare-fun p85() Bool)
(declare-fun p17() Bool)
(declare-fun p34() Bool)
(declare-fun p66() Bool)
(declare-fun p41() Bool)
(declare-fun p6() Bool)
(declare-fun p80() Bool)
(declare-fun p28() Bool)
(declare-fun p1() Bool)
(declare-fun p39() Bool)
(declare-fun p67() Bool)
(declare-fun p59() Bool)
(declare-fun p36() Bool)
(declare-fun p32() Bool)
(declare-fun p19() Bool)
(declare-fun p77() Bool)
(declare-fun p43() Bool)
(declare-fun p14() Bool)
(declare-fun p18() Bool)
(declare-fun p37() Bool)
(declare-fun p56() Bool)
(declare-fun p74() Bool)
(declare-fun p55() Bool)
(declare-fun p50() Bool)
(declare-fun p11() Bool)
(declare-fun p58() Bool)
(declare-fun p20() Bool)
(declare-fun p61() Bool)
(declare-fun p30() Bool)
(declare-fun p29() Bool)
(declare-fun p8() Bool)
(declare-fun p52() Bool)
(declare-fun p69() Bool)
(declare-fun p24() Bool)
(declare-fun p72() Bool)
(declare-fun p9() Bool)
(declare-fun p31() Bool)
(declare-fun p94() Bool)
(declare-fun p49() Bool)
(declare-fun p2() Bool)
(declare-fun p12() Bool)
(declare-fun p81() Bool)
(declare-fun p35() Bool)
(declare-fun p63() Bool)
(declare-fun p90() Bool)
(declare-fun p10() Bool)
(declare-fun p53() Bool)
(declare-fun p88() Bool)
(declare-fun p97() Bool)
(declare-fun p42() Bool)
(declare-fun p60() Bool)
(declare-fun p48() Bool)
(declare-fun p75() Bool)
(declare-fun p71() Bool)
(declare-fun p93() Bool)
(declare-fun p5() Bool)
(declare-fun p16() Bool)
(declare-fun p44() Bool)
(declare-fun p89() Bool)
(declare-fun p47() Bool)
(declare-fun p57() Bool)
(declare-fun p26() Bool)
(declare-fun p96() Bool)
(declare-fun p78() Bool)
(declare-fun p38() Bool)
(declare-fun p40() Bool)
(declare-fun p3() Bool)
(declare-fun p62() Bool)
(declare-fun p4() Bool)
(declare-fun p64() Bool)
(declare-fun p95() Bool)
(declare-fun p70() Bool)
(declare-fun p73() Bool)
(declare-fun p46() Bool)
(declare-fun p91() Bool)
(declare-fun p76() Bool)
(declare-fun p92() Bool)
(declare-fun p68() Bool)
(declare-fun p23() Bool)
(declare-fun p86() Bool)
(declare-fun p82() Bool)
(declare-fun p27() Bool)
(declare-fun p7() Bool)
(declare-fun p99() Bool)
(declare-fun p45() Bool)
(declare-fun p65() Bool)
(declare-fun p98() Bool)
(declare-fun p87() Bool)
(declare-fun p0() Bool)
(assert
(and (or p79 p83 (not p22)) (or p25 (not p51) (not p21)) (or p79 p84 p54) (or (not p13) (not p15) (not p33)) (or (not p85) (not p17) (not p34)) (or (not p66) (not p41) p6) (or (not p80) p22 (not p28)) (or (not p1) p39 p67) (or p41 p59 p36) (or p32 p19 p77) (or p43 p14 p18) (or (not p37) (not p56) (not p74)) (or (not p55) p13 (not p17)) (or p50 p11 (not p58)) (or p11 (not p20) (not p61)) (or p14 p30 (not p19)) (or p29 p50 (not p77)) (or p8 p52 (not p69)) (or p39 (not p24) p8) (or p72 p85 p17) (or p54 p9 p52) (or p59 (not p31) p85) (or (not p94) p49 (not p39)) (or p2 p12 p49) (or p37 p36 p29) (or (not p81) (not p35) p32) (or (not p63) (not p90) (not p10)) (or p53 (not p88) p63) (or (not p15) (not p21) (not p97)) (or p37 (not p54) (not p50)) (or p42 p60 p42) (or p80 p48 (not p84)) (or (not p75) (not p25) p69) (or p71 p2 p52) (or (not p93) p36 p5) (or p60 p58 p16) (or (not p79) (not p44) p2) (or p53 p89 p47) (or p77 p21 (not p31)) (or p79 (not p57) (not p26)) (or (not p96) (not p75) p30) (or p78 p17 p61) (or p28 (not p10) (not p88)) (or (not p2) (not p55) p84) (or (not p83) p12 p80) (or (not p88) (not p75) (not p56)) (or (not p80) (not p85) p13) (or (not p38) (not p21) p89) (or (not p35) p31 p6) (or (not p13) (not p51) p93) (or p50 (not p47) (not p55)) (or (not p40) p9 (not p37)) (or p3 p2 (not p11)) (or p62 p9 p16) (or p5 p16 p22) (or (not p72) (not p4) p28) (or p29 (not p35) (not p64)) (or p29 p95 (not p66)) (or (not p70) (not p52) p48) (or p84 (not p73) p59) (or (not p46) (not p91) p43) (or p28 p78 (not p59)) (or (not p12) (not p41) p53) (or (not p33) p90 p64) (or (not p89) p76 (not p11)) (or (not p47) (not p55) p76) (or p74 (not p40) p8) (or p92 (not p74) p24) (or p46 (not p79) p56) (or p75 p4 p13) (or (not p88) p71 p48) (or (not p88) p53 p68) (or (not p47) (not p51) p74) (or (not p14) p21 (not p77)) (or p76 p89 (not p97)) (or p4 p69 (not p73)) (or p11 p11 p69) (or p28 (not p90) p83) (or p18 p88 (not p58)) (or (not p28) p53 (not p17)) (or (not p48) (not p75) p43) (or (not p23) (not p78) (not p75)) (or p43 (not p52) p40) (or p43 p84 p83) (or p84 (not p15) (not p74)) (or p83 (not p96) (not p86)) (or (not p56) (not p52) (not p5)) (or (not p52) (not p10) (not p67)) (or p40 p32 (not p59)) (or p91 (not p82) (not p70)) (or (not p81) (not p27) (not p83)) (or p59 p55 p92) (or (not p79) p83 (not p1)) (or (not p81) p28 p72) (or (not p57) (not p18) (not p16)) (or (not p83) p55 p42) (or (not p49) (not p68) p11) (or p58 p47 (not p28)) (or (not p33) p73 p50) (or (not p7) p39 p12) (or p95 p32 (not p59)) (or (not p13) p39 (not p62)) (or (not p90) (not p44) p32) (or p37 p38 (not p39)) (or p80 (not p12) p99) (or (not p99) p10 (not p4)) (or p53 (not p46) (not p56)) (or p63 (not p94) p33) (or (not p64) (not p10) p59) (or p67 (not p32) p95) (or (not p30) (not p70) (not p6)) (or (not p45) (not p90) (not p66)) (or (not p50) p54 (not p77)) (or p93 p17 p64) (or (not p80) (not p55) (not p26)) (or p39 p36 p16) (or p84 p58 (not p30)) (or p5 p94 (not p16)) (or p11 (not p94) (not p5)) (or (not p17) (not p97) p85) (or p69 (not p64) (not p65)) (or (not p57) (not p16) p8) (or p40 p3 (not p1)) (or p25 (not p94) p70) (or (not p30) (not p36) p18) (or (not p93) (not p22) (not p43)) (or p62 (not p95) (not p47)) (or p62 p94 (not p60)) (or p11 p45 (not p98)) (or p58 (not p57) (not p81)) (or (not p3) (not p1) (not p35)) (or (not p79) p99 (not p45)) (or p42 p29 (not p41)) (or (not p99) p34 p26) (or p58 p54 (not p87)) (or (not p34) (not p5) (not p20)) (or (not p2) (not p13) (not p22)) (or p89 p89 p51) (or p29 (not p67) p78) (or (not p11) p34 (not p13)) (or p53 (not p64) (not p97)) (or (not p85) p17 (not p33)) (or (not p23) p38 p11) (or p56 p47 (not p31)) (or (not p87) (not p61) p16) (or (not p3) p5 (not p76)) (or p42 p0 (not p53)) (or (not p51) (not p95) p52) (or (not p88) p60 p45) (or (not p1) (not p14) p63) (or p18 p22 (not p78)) (or (not p72) (not p23) (not p24)) (or (not p46) p41 p39) (or p94 (not p78) (not p11)) (or (not p11) (not p51) (not p60)) (or p86 p63 p50) (or (not p36) (not p99) (not p1)) (or p67 (not p29) p14) (or p26 p86 (not p29)) (or (not p16) p56 p16) (or p55 (not p40) p67) (or (not p65) (not p61) (not p59)) (or (not p28) (not p26) p32) (or p81 p7 p86) (or p58 p75 p41) (or p85 (not p90) (not p63)) (or (not p88) (not p70) p85) (or p78 (not p2) p7) (or p25 p79 p58) (or p72 p85 p78) (or p6 p95 p85) (or p27 (not p42) (not p56)) (or p7 (not p71) (not p65)) (or p69 (not p25) (not p11)) (or p13 (not p85) (not p86)) (or p73 p57 p73) (or (not p25) (not p79) (not p19)) (or (not p33) (not p73) p46) (or p9 p22 (not p86)) (or p83 (not p40) p46) (or (not p15) (not p13) (not p84)) (or (not p7) p19 p66) (or (not p10) p23 p76) (or (not p0) p97 p23) (or (not p78) p41 p29) (or p94 p43 (not p92)) (or (not p21) p49 (not p92)) (or (not p13) (not p72) p76) (or (not p21) p20 (not p52)) (or (not p13) (not p9) (not p51)) (or p61 p36 (not p12)) (or (not p72) p25 p88) (or (not p85) (not p8) p67) (or p66 p72 p1) (or (not p4) (not p14) (not p63)) (or p21 p12 p40) (or (not p95) p29 p91) (or p14 (not p65) p82) (or p5 (not p34) p58) (or (not p25) p88 p8) (or (not p41) (not p81) p20) (or p68 p74 (not p48)) (or p92 p46 (not p7)) (or (not p89) p56 p14) (or (not p97) p33 (not p18)) (or (not p16) (not p32) (not p43)) (or p40 p39 (not p26)) (or (not p9) (not p63) (not p85)) (or p90 p48 (not p66)) (or p8 p13 (not p7)) (or p0 (not p63) (not p84)) (or (not p22) p88 (not p10)) (or p98 (not p96) p28) (or p11 p23 p89) (or p82 p49 p99) (or p41 (not p15) p57) (or p41 (not p60) p14) (or (not p34) p11 (not p11)) (or (not p87) (not p88) (not p83)) (or p87 p15 p74) (or p68 (not p90) p90) (or p68 (not p26) p4) (or (not p36) p44 p98) (or (not p95) (not p64) p66) (or p45 p33 (not p65)) (or p5 p98 (not p12)) (or (not p30) p78 p6) (or (not p71) p53 p14) (or p91 p81 (not p27)) (or (not p87) p84 p28) (or (not p23) p54 (not p65)) (or (not p3) (not p56) (not p27)) (or p62 p59 p39) (or p97 (not p33) p58) (or (not p77) (not p8) p35) (or (not p79) p98 (not p44)) (or p16 (not p7) p91) (or p98 p66 p40) (or p73 (not p87) (not p9)) (or p80 p46 p13) (or p52 p80 (not p42)) (or (not p22) p98 p23) (or p17 (not p94) p39) (or p38 p33 p5) (or p56 p23 (not p31)) (or p72 (not p88) (not p40)) (or (not p19) (not p93) p42) (or (not p28) (not p0) (not p79)) (or p63 p32 (not p19)) (or p0 (not p51) (not p71)) (or p93 (not p96) p47) (or p73 p47 (not p42)) (or (not p5) p43 (not p58)) (or (not p19) (not p31) (not p88)) (or (not p58) (not p95) p56) (or p55 (not p66) (not p27)) (or (not p31) p48 (not p30)) (or p38 p41 p19) (or (not p99) p91 (not p45)) (or (not p15) p6 p96) (or (not p15) p97 (not p36)) (or p91 p10 (not p83)) (or p4 p97 p87) (or p85 p97 (not p0)) (or (not p36) p61 p28) (or (not p32) p61 p36) (or (not p31) (not p81) (not p10)) (or (not p82) p27 p98) (or (not p95) p89 p58) (or (not p46) (not p3) p54) (or p95 (not p17) (not p61)) (or p4 p26 (not p6)) (or p6 p96 p11) (or (not p97) p24 p98) (or (not p78) (not p36) (not p71)) (or (not p13) (not p56) p50) (or p38 p72 p50) (or p71 (not p83) (not p7)) (or p87 (not p59) p62) (or p4 (not p49) (not p85)) (or (not p84) (not p95) p91) (or (not p18) p7 (not p9)) (or (not p19) p1 (not p19)) (or p29 (not p91) (not p80)) (or p54 (not p17) p86) (or (not p83) (not p18) (not p36)) (or p79 p36 p77) (or p8 p51 (not p91)) (or p27 p20 (not p45)) (or p85 p19 p35) (or p95 p68 p74) (or (not p21) p91 (not p55)) (or p69 p42 p92) (or p12 (not p29) p29) (or (not p12) (not p76) p92) (or p87 (not p92) p86) (or (not p51) (not p79) (not p58)) (or (not p40) (not p74) (not p13)) (or (not p23) (not p60) p71) (or (not p42) (not p51) p35) (or (not p87) p18 (not p74)) (or (not p5) (not p74) (not p94)) (or (not p94) (not p54) (not p91)) (or p79 p55 p36) (or (not p7) (not p87) (not p76)) (or p8 p74 (not p11)) (or p32 (not p63) p45) (or p12 p42 (not p45)) (or p52 p28 (not p30)) (or (not p51) (not p21) p83) (or p32 p82 p99) (or (not p22) p65 p40) (or p69 p44 p2) (or p7 p21 p49) (or (not p68) (not p63) (not p12)) (or p92 (not p6) (not p83)) (or p72 (not p37) p17) (or (not p32) p89 p18) (or p95 (not p84) (not p95)) (or (not p85) (not p54) p54) (or p78 p97 (not p67)) (or p75 p72 p36) (or (not p82) (not p64) (not p3)) (or p41 (not p12) (not p42)) (or (not p1) p32 p54) (or p55 (not p52) p37) (or (not p5) (not p26) (not p28)) (or (not p56) (not p17) (not p67)) (or (not p3) (not p14) p22) (or (not p0) p73 (not p78)) (or p13 (not p95) (not p94)) (or (not p35) (not p18) p87) (or (not p84) (not p28) p51) (or p3 p41 (not p34)) (or p83 p22 (not p47)) (or (not p89) (not p80) (not p87)) (or p33 p65 (not p22)) (or p43 p92 (not p98)) (or (not p6) p36 p56) (or (not p0) (not p18) p27) (or p37 p18 (not p13)) (or (not p97) p24 p62) (or (not p34) (not p78) p28) (or p5 (not p58) p10) (or (not p48) (not p92) (not p10)) (or p91 p96 (not p34)) (or (not p85) p82 p12) (or (not p54) p85 p23) (or (not p46) (not p39) (not p3)) (or (not p46) p10 p39) (or (not p51) p66 (not p52)) (or p26 (not p48) (not p12)) (or p42 p35 p80) (or (not p18) (not p79) p82) (or (not p4) p57 p79) (or (not p86) (not p17) (not p30)) (or (not p14) p86 (not p30)) (or p15 (not p62) (not p52)) (or p97 (not p80) (not p43)) (or p40 (not p44) (not p77)) (or p45 p81 p96) (or p66 p86 (not p46)) (or p5 p65 p75) (or p73 p12 p94) (or (not p37) p65 (not p1)) (or (not p87) p58 (not p60)) (or (not p16) p8 (not p93)) (or p29 p42 p51) (or (not p63) p27 (not p16)) (or p94 p74 (not p85)) (or p10 (not p71) p68) (or p23 (not p12) p99) (or p13 p0 (not p41)) (or (not p1) (not p65) (not p66)) (or p79 p20 p43) (or (not p73) (not p21) p24) (or (not p62) (not p74) p88) (or (not p14) (not p93) (not p1)) (or p26 (not p34) (not p65)) (or (not p15) (not p53) p77) (or (not p45) p18 (not p68)) (or p96 p99 p12) (or p42 p24 p89) (or (not p91) p21 (not p57)) (or (not p84) p23 p55) (or (not p40) p88 p44) (or p76 (not p73) (not p91)) (or p82 (not p55) (not p6)) (or (not p93) (not p14) (not p40)) (or (not p90) p17 p8) (or p39 (not p26) p24) (or (not p51) p24 (not p2)) (or (not p23) p89 (not p39)) (or (not p54) (not p80) p62) (or p22 p50 (not p15)) (or p12 (not p50) p81) (or (not p22) (not p46) (not p60)) (or (not p42) (not p19) (not p30)) (or (not p48) (not p40) (not p40)) (or p27 (not p4) p72) (or p81 (not p60) p91) (or (not p5) (not p37) (not p94)) (or p2 p36 p94) (or (not p66) (not p64) (not p98)) (or (not p13) (not p96) p88) (or (not p63) (not p40) (not p98)) (or (not p89) p80 (not p42)) (or p19 p29 p77) (or p75 (not p86) (not p27)) (or (not p36) (not p30) (not p29)) (or (not p43) (not p39) p95) (or (not p63) (not p43) p4) (or (not p36) (not p47) (not p12)) (or (not p2) (not p90) p76) (or (not p80) (not p94) p26) (or (not p34) (not p40) p65) (or p44 (not p32) p32) (or p32 (not p92) (not p51)) (or (not p31) (not p74) p89) (or p39 (not p89) (not p74)))
)
(check-sat)
(get-model)
